/* Cplex Data generated on 2017-12-15 */

k = 12;

b = 6;

AtomicConstraints = {
	 <1, 3>,
	 <1, 4>,
	 <1, 5>,
	 <1, 6>,
	 <2, 3>,
	 <2, 4>,
	 <2, 5>,
	 <2, 6>,
	 <3, 5>,
	 <3, 6>,
	 <4, 5>,
	 <4, 6>,
	 }; 

SoftAtomicConstraints = {
	 <1, 2>,
	 <3, 4>,
	 <5, 6>,
	 <12, 7>,
	 <11, 8>,
	 <7, 9>,
	 <8, 10>,
	 <9, 11>,
	 }; 

DisjunctiveConstraints = {
	 <8, 11, 8, 10>,
	 <11, 9, 11, 8>,
	 <9, 7, 9, 11>,
	 <7, 12, 7, 9>,
	 }; 

DirectSuccessors = {
	 }; 

